(set-info :smt-lib-version 2.6)
(set-info :source | Leonardo de Moura |)
(set-info :category "check")
(set-info :status unsat)
(set-info :notes |This benchmark is designed to check if the integer DP is complete.|)
(declare-fun x1 () Real)
(declare-fun x2 () Real)
(declare-fun x3 () Real)
(declare-fun x4 () Real)
(declare-fun z () Bool)
(declare-fun x () Bool)
(declare-fun y () Bool)
(assert (and (distinct z x) (distinct x1 x2 x3 x4 77.1) ))
;(assert (= x1 x2))
(check-sat)
(exit)
